00
00
00
00
00
00
00
00
00
00
00
00
00
00
00
00
00
00
00
00
00
00
00
00
00
00
00
00
00
00
00
00
00
00
00
00
00
00
00
00
00
00
00
00
00
00
00
00
00
00
00
00
00
00
00
00
00
00
00
00
00
00
00
00
00
00
00
00
00
00
00
00
00
00
00
00
00
00
00
00
00
00
00
00
00
00
00
00
00
00
00
00
00
00
00
00
00
00
00
00
00
00
00
00
00
00
00
00
00
00
00
00
00
00
00
00
00
00
00
00
00
00
00
00
00
00
00
00
00
00
00
00
00
00
00
00
00
00
00
00
00
00
00
00
00
00
00
00
00
00
00
00
00
00
00
00
00
00
00
00
00
00
00
00
00
00
00
00
00
00
00
00
00
00
00
00
00
00
00
00
00
00
00
00
00
00
00
00
00
00
00
00
00
00
00
00
00
00
00
00
00
00
00
00
00
00
00
00
00
00
00
00
00
00
00
00
00
00
00
00
00
00
00
00
00
00
00
00
00
00
00
00
00
00
00
00
00
00
00
00
00
00
00
00
00
00
00
00
00
00
00
00
00
00
00
00
00
00
00
00
00
00
00
00
00
00
00
00
00
00
00
00
00
00
00
00
00
00
00
00
00
00
00
00
00
00
00
00
00
00
00
00
00
00
00
00
00
00
00
00
00
00
00
00
00
00
00
00
00
00
00
00
00
00
00
00
00
00
00
00
00
00
00
00
00
00
00
00
00
00
00
00
00
00
00
00
00
00
00
00
00
00
00
00
00
00
00
00
00
00
00
00
00
00
00
00
00
00
00
00
00
00
00
00
00
00
00
00
00
00
00
00
00
00
00
00
00
00
00
00
00
00
00
00
00
00
00
00
00
00
00
00
00
00
00
00
00
00
00
00
00
00
00
00
00
00
00
00
00
00
00
00
00
00
00
00
00
00
00
00
00
00
00
00
00
00
00
00
00
00
00
00
00
00
00
00
00
00
00
00
00
00
00
00
00
00
00
00
00
00
00
00
00
00
00
00
00
00
00
00
00
00
00
00
00
00
00
00
00
00
00
00
00
00
00
00
00
00
00
00
00
00
00
00
00
00
00
00
00
00
00
00
00
00
00
00
00
00
00
00
00
00
00
00
00
00
00
00
00
00
00
00
00
00
00
00
00
00
00
00
00
00
00
00
00
00
00
00
00
00
00
00
00
00
00
00
00
00
00
00
00
00
00
00
00
00
00
00
00
00
00
00
00
00
00
00
00
00
00
00
00
00
00
00
00
00
00
00
00
00
00
00
00
00
00
00
00
00
00
00
00
00
00
00
00
00
00
00
00
00
00
00
00
00
00
00
00
00
00
00
00
00
00
00
00
00
00
00
00
00
00
00
00
00
00
00
00
00
00
00
00
00
00
00
00
00
00
00
00
00
00
00
00
00
00
00
00
00
00
00
00
00
00
00
00
00
00
00
00
00
00
00
00
00
00
00
00
00
00
00
00
00
00
00
00
00
00
00
00
00
00
00
00
00
00
00
00
00
00
00
00
00
00
00
00
00
00
00
00
00
00
00
00
00
00
00
00
00
00
00
00
00
00
00
00
00
00
00
00
00
00
00
00
00
00
00
00
00
00
00
00
00
00
00
00
00
00
00
00
00
00
00
00
00
00
00
00
00
00
00
00
00
00
00
00
00
00
00
00
00
00
00
00
00
00
00
00
00
00
00
00
00
00
00
00
00
00
00
00
00
00
00
00
00
00
00
00
00
00
00
00
00
00
00
00
00
00
00
00
00
00
00
00
00
00
00
00
00
00
00
00
00
00
00
00
00
00
00
00
00
00
00
00
00
00
00
00
00
00
00
00
00
00
00
00
00
00
00
00
00
00
00
00
00
00
00
00
00
00
00
00
00
00
00
00
00
00
00
00
00
00
00
00
00
00
00
00
00
00
00
00
00
00
00
00
00
00
00
00
00
00
00
00
00
00
00
00
00
00
00
00
00
00
00
00
00
00
00
00
00
00
00
00
00
00
00
00
00
00
00
00
00
00
00
00
00
00
00
00
00
00
00
00
00
00
00
00
00
00
00
00
00
00
00
00
00
00
00
00
00
00
00
00
00
00
00
00
00
00
00
00
00
00
00
00
00
00
00
00
00
00
00
00
00
00
00
00
00
00
00
00
00
00
00
00
00
00
00
00
00
00
00
00
00
00
00
00
00
00
00
00
00
00
00
00
00
00
00
00
00
00
00
00
00
00
00
00
00
00
00
00
00
00
00
00
00
00
00
00
00
00
00
00
00
00
00
00
00
00
00
00
00
00
00
00
00
00
00
00
00
00
00
00
00
00
00
00
00
00
00
00
00
00
00
00
00
00
00
00
00
00
00
00
00
00
00
00
00
00
00
00
00
00
00
00
00
00
00
00
00
00
00
00
00
00
00
00
00
00
00
00
00
00
00
00
00
00
00
00
00
00
00
00
00
00
00
00
00
00
00
00
00
00
00
00
00
00
00
00
00
00
00
00
00
00
00
00
00
00
00
00
00
00
00
00
00
00
00
00
00
00
00
00
00
00
00
00
00
00
00
00
00
00
00
00
00
00
00
00
00
00
00
00
00
00
00
00
00
00
00
00
00
00
00
00
00
00
00
00
00
00
00
00
00
00
00
00
00
00
00
00
00
00
00
00
00
00
00
00
00
00
00
00
00
00
00
00
00
00
00
00
00
00
00
00
00
00
00
00
00
00
00
00
00
00
00
00
00
00
00
00
00
00
00
00
00
00
00
00
00
00
00
00
00
00
00
00
00
00
00
00
00
00
00
00
00
00
00
00
00
00
00
00
00
00
00
00
00
00
00
00
00
00
00
00
00
00
00
00
00
00
00
00
00
00
00
00
00
00
00
00
00
00
00
00
00
00
00
00
00
00
00
00
00
00
00
00
00
00
00
00
00
00
00
00
00
00
00
00
00
00
00
00
00
00
00
00
00
00
00
00
00
00
00
00
00
00
00
00
00
00
00
00
00
00
00
00
00
00
00
00
00
00
00
00
00
00
00
00
00
00
00
00
00
00
00
00
00
00
00
00
00
00
00
00
00
00
00
00
00
00
00
00
00
00
00
00
00
00
00
00
00
00
00
00
00
00
00
00
00
00
00
00
00
00
00
00
00
00
00
00
00
00
00
00
00
00
00
00
00
00
00
00
00
00
00
00
00
00
00
00
00
00
00
00
00
00
00
00
00
00
00
00
00
00
00
00
00
00
00
00
00
00
00
00
00
00
00
00
00
00
00
00
00
00
00
00
00
00
00
00
00
00
00
00
00
00
00
00
00
00
00
00
00
00
00
00
00
00
00
00
00
00
00
00
00
00
00
00
00
00
00
00
00
00
00
00
00
00
00
00
00
00
00
00
00
00
00
00
00
00
00
00
00
00
00
00
00
00
00
00
00
00
00
00
00
00
00
00
00
00
00
00
00
00
00
00
00
00
00
00
00
00
00
00
00
00
00
00
00
00
00
00
00
00
00
00
00
00
00
00
00
00
00
00
00
00
00
00
00
00
00
00
00
00
00
00
00
00
00
00
00
00
00
00
00
00
00
00
00
00
00
00
00
00
00
00
00
00
00
00
00
00
00
00
00
00
00
00
00
00
00
00
00
00
00
00
00
00
00
00
00
00
00
00
00
00
00
00
00
00
00
00
00
00
00
00
00
00
00
00
00
00
00
00
00
00
00
00
00
00
00
00
00
00
00
00
00
00
00
00
00
00
00
00
00
00
00
00
00
00
00
00
00
00
00
00
00
00
00
00
00
00
00
00
00
00
00
00
00
00
00
00
00
00
00
00
00
00
00
00
00
00
00
00
00
00
00
00
00
00
00
00
00
00
00
00
00
00
00
00
00
00
00
00
00
00
00
00
00
00
00
00
00
00
00
00
00
00
00
00
00
00
00
00
00
00
00
00
00
00
00
00
00
00
00
00
00
00
00
00
00
00
00
00
00
00
00
00
00
00
00
00
00
00
00
00
00
00
00
00
00
00
00
00
00
00
00
00
00
00
00
00
00
00
00
00
00
00
00
00
00
00
00
00
00
00
00
00
00
00
00
00
00
00
00
00
00
00
00
00
00
00
00
00
00
00
00
00
00
00
00
00
00
00
00
00
00
00
00
00
00
00
00
00
00
00
00
00
00
00
00
00
00
00
00
00
00
00
00
00
00
00
00
00
00
00
00
00
00
00
00
00
00
00
00
00
00
00
00
00
00
00
00
00
00
00
00
00
00
00
00
00
00
00
00
00
00
00
00
00
00
00
00
00
00
00
00
00
00
00
00
00
00
00
00
00
00
00
00
00
00
00
00
00
00
00
00
00
00
00
00
00
00
00
00
00
00
00
00
00
00
00
00
00
00
00
00
00
00
00
00
00
00
00
00
00
00
00
00
00
00
00
00
00
00
00
00
00
00
00
00
00
00
00
00
00
00
00
00
00
00
00
00
00
00
00
00
00
00
00
00
00
00
00
00
00
00
00
00
00
00
00
00
00
00
00
00
00
00
00
00
00
00
00
00
00
00
00
00
00
00
00
00
00
00
00
00
00
00
00
00
00
00
00
00
00
00
00
00
00
00
00
00
00
00
00
00
BE
BE
C8
8F
52
DC
AC
D5
97
54
E1
38
01
BC
25
39
93
AB
0F
7C
CD
AE
54
23
01
87
5C
D9
72
14
5B
FA
7E
3B
8F
F7
D9
6F
3B
98
BA
A2
B8
D6
FA
8D
4B
0B
A9
FF
65
6C
E0
68
B9
E0
11
84
4A
EF
FC
65
03
73
0E
D9
5A
90
5C
6B
D9
1B
B3
97
18
CB
27
B2
C6
99
75
D0
6F
AC
F6
16
54
D9
D9
8C
51
95
56
22
4F
3C
96
84
7D
BE
81
51
01
B0
97
73
11
E0
63
E8
FE
A9
F5
C9
73
32
A9
0B
07
9F
C5
D7
E8
69
1E
98
3B
FD
C4
20
14
52
64
14
72
7C
2B
6A
7F
C4
F4
D9
5D
73
CB
18
97
B3
73
80
6B
5C
90
5A
8A
EE
A3
DC
FB
29
32
9C
D3
4C
81
73
73
53
23
15
69
57
55
ED
96
F2
32
1B
4F
D3
62
69
5A
58
8C
D3
A1
ED
20
53
F4
41
B7
45
8E
EB
4E
DB
C5
C2
4E
AF
2E
CE
91
28
8E
6C
69
A3
65
66
13
EF
03
69
35
B6
CB
62
76
44
E4
EE
E9
A9
57
3C
C9
D7
69
10
81
69
38
3C
4F
1E
4E
F1
CE
CB
32
73
D9
1E
4C
7A
3E
0A
E3
DA
86
25
0F
27
F6
67
EB
19
B7
E2
3D
1F
05
FF
6D
43
9C
BC
1D
6D
A3
5D
1B
52
2D
F5
C8
6D
59
FC
6D
5E
94
08
64
C3
92
C7
1C
35
AA
BB
0C
5D
0E
CD
99
9A
08
AE
DA
63
0A
93
FF
AF
30
3D
04
4D
F2
13
15
D6
3E
04
5E
66
98
9F
57
04
69
E9
6D
38
04
BF
F4
C0
C7
F1
B0
14
B2
16
F4
E7
65
11
10
A2
8B
3D
F0
5E
43
04
15
B8
0B
7A
04
D1
E6
E8
04
60
57
04
1B
75
96
86
CC
C0
C7
EA
05
D6
E6
05
29
04
6D
8A
BC
C3
69
FC
EE
6D
25
6D
7D
93
51
C9
6D
3A
43
F4
34
64
C3
05
31
6F
1A
31
5D
85
FD
6B
E6
9C
68
D2
DD
F0
AA
88
72
90
4B
44
50
66
0A
A0
06
6D
F1
29
C7
24
E8
EC
7A
26
1C
58
B6
7B
AB
7E
7D
A7
32
26
1C
75
74
0B
80
4B
44
5A
77
53
0A
43
49
78
D1
44
50
28
76
22
4F
E6
30
3C
01
A9
1E
18
0C
E2
0F
67
DA
08
0A
7A
73
CE
67
AB
B7
19
9B
B1
DA
BA
14
0A
93
86
DA
B7
0C
0F
47
08
BC
0A
B1
67
FB
0C
A7
5E
05
D6
BD
F3
06
DD
C7
92
DB
9F
71
98
6D
D5
06
89
AD
82
6F
BD
9D
D6
6D
5D
04
96
3D
69
4E
D3
22
27
F8
E7
3A
84
EB
BA
53
8E
2D
A7
27
47
31
BA
49
7A
F4
36
31
3A
7A
D5
27
85
A7
B5
7A
BA
EA
A7
E7
E3
47
1B
1E
D4
12
11
64
98
1D
3D
E4
9D
CC
DD
5D
16
7C
59
9D
DD
FD
FF
AD
1D
88
96
FB
5D
AA
14
18
06
DD
BD
F3
05
D6
04
5E
0C
03
E0
D0
F7
8C
6B
02
2F
02
4B
6B
51
03
B9
F7
C1
DB
D3
53
C9
69
F4
77
20
17
38
CB
92
45
4E
34
15
69
66
F4
74
62
6C
D3
8E
C2
4E
44
5A
0E
D9
F6
33
02
F7
8D
9B
A4
3B
8D
A4
03
02
45
58
F6
71
9F
DB
92
C7
21
5E
C5
8E
F4
64
EF
29
53
62
29
7E
86
69
C9
77
F4
8E
5A
53
16
B3
41
D6
A2
04
96
F3
9F
06
6F
74
69
CB
4E
44
D3
ED
62
1A
B7
48
53
58
92
53
5A
8E
4E
17
8D
DB
79
6C
F4
74
77
78
69
69
92
F4
5A
53
4E
8E
30
34
55
D3
91
2E
38
E9
DB
20
24
C2
8E
D3
23
77
66
A3
69
C9
34
3C
28
1E
18
14
A9
14
0F
0C
0A
DA
0A
08
0C
67
06
05
6D
04
D6
BD
16
AE
0B
B5
F9
F9
80
61
0B
F2
98
57
BE
8B
D4
10
7F
18
EB
6F
04
A2
D6
4A
F3
06
04
05
F1
8A
07
24
38
1C
1E
D2
9C
BB
44
4E
ED
D3
74
15
CB
69
A6
01
5A
53
4E
8E
62
69
92
F4
F5
6C
62
74
F4
B7
4E
17
53
77
F4
69
C9
53
D3
DB
8E
36
3C
B5
24
22
C8
2D
3A
7A
D5
27
85
A7
BA
2C
F8
B2
27
A7
E7
E3
47
3A
0D
31
EB
BA
49
1E
14
05
3D
6D
04
89
BD
06
71
0A
8C
90
B8
02
CA
D0
03
B6
03
E0
D0
F7
8C
6B
02
2F
38
34
F4
23
D3
8E
C2
30
92
24
20
DB
E9
69
2E
91
D3
55
8E
4E
53
5A
34
C9
A3
69
66
77
08
72
F7
95
B9
25
02
75
51
4B
02
51
6B
B9
03
C1
F7
92
1A
CB
79
DB
8D
17
62
69
4E
8E
5A
53
74
58
53
48
B7
ED
D3
44
4E
69
78
74
77
F4
6C
06
55
07
76
F1
B0
8A
04
53
8E
DB
F4
77
C9
69
C5
9F
86
7E
29
62
71
29
EF
64
F4
5E
21
C7
92
41
B3
53
16
5A
8E
4E
17
53
6C
62
74
F4
20
D3
66
69
15
34
DB
45
92
CB
38
77
F4
69
C9
5A
44
C2
4E
8E
D3
36
24
1B
1C
12
14
12
83
0E
09
0A
09
FF
0E
0C
07
8A
05
F1
04
06
10
59
08
DE
FB
FB
0C
B1
08
F3
4A
A2
D6
04
6F
16
C2
1D
EF
D4
8B
57
BE
98
F2
BD
D6
6D
04
05
06
2E
34
1A
18
73
A9
6D
5D
C3
D6
D5
82
BD
DB
DA
B8
A0
EF
6B
E4
41
D0
E3
D0
C0
41
B9
B8
7E
6B
49
30
57
69
2E
91
D3
55
81
CB
28
FE
20
CA
15
F2
1B
91
F3
D3
ED
4E
44
57
34
F1
15
A2
66
FF
65
A4
22
F7
51
F6
19
33
D9
F6
33
02
F7
8D
9B
A4
5E
EA
92
17
71
3E
9F
86
F4
53
B3
41
C5
62
B7
C5
54
0F
4E
8E
5A
53
F4
6C
62
EF
29
7E
F3
44
55
CA
66
32
F1
A2
B7
53
17
62
6C
F4
74
0F
47
0A
93
86
DA
9F
86
7E
29
62
EA
DF
5E
1A
54
C5
B7
41
48
53
D3
DB
8E
77
F4
69
C9
28
2E
F1
34
57
39
24
13
38
30
36
A3
C9
34
BC
C2
55
7C
D3
23
2E
DE
94
6F
87
4A
3B
4A
B9
CD
25
93
25
7D
CD
E2
E8
9C
C7
B0
5E
71
41
2A
AE
36
3F
3F
F9
2D
AE
91
12
15
98
57
1B
5A
44
77
6C
1E
98
12
11
14
1B
89
05
43
8A
26
CF
8E
F4
7A
73
38
43
FF
CC
08
FB
0E
56
AA
EC
0E
AA
0C
08
09
7D
FF
D9
46
4B
72
3B
84
65
33
02
F7
8D
9B
A4
51
95
A4
E5
22
B9
03
C1
F7
02
75
51
58
F6
19
0C
AA
0E
EC
FF
7D
09
08
A6
01
AB
F5
EE
8F
D2
97
23
11
FC
52
C4
E2
52
C3
C8
F5
BC
42
93
39
82
7B
A6
2C
B4
01
D2
39
F5
B4
A6
9C
01
60
68
AA
BB
3F
5C
70
CF
AB
40
48
99
01
BB
46
EE
CC
5B
D2
8F
68
2D
36
98
12
1B
1E
1B
4C
09
83
0F
83
0E
09
0A
8A
CF
89
07
06
05
21
E1
9E
C8
1F
1F
D1
AC
9E
81
B3
FE
56
4F
64
77
66
C2
5A
11
D4
1B
97
1E
98
04
F3
06
55
07
F1
BC
23
9F
A9
08
CC
FF
43
AA
56
0E
FB
C4
F5
39
A6
B4
01
9C
11
C9
1E
A8
97
73
BC
97
82
7B
A6
23
7C
E2
2E
FC
52
C4
C3
D8
F5
BB
AB
01
EE
F5
D2
8F
50
5C
FF
68
AE
72
48
26
70
60
6C
5B
8F
68
65
99
AA
F8
BB
46
5C
C8
7B
64
29
B3
8E
B3
32
9A
D7
47
D7
EC
9A
7A
4D
E5
AD
76
DD
3D
EF
3F
F9
2D
AE
AE
0B
B5
F9
57
1B
91
D4
F2
98
7E
6C
41
54
12
91
ED
1B
1C
15
6D
BD
D5
06
89
05
34
D3
E7
11
6B
4B
02
C1
F7
B9
03
A0
B8
E3
D0
41
E4
90
4C
E0
C0
D8
B6
03
D0
CA
2F
49
ED
6B
8C
B8
22
3C
11
14
1E
73
1E
86
0A
0F
B7
0F
0C
0A
DA
05
89
D5
06
BD
6D
7E
C7
3F
24
2A
2A
AE
36
3F
15
1C
ED
1B
91
12
EF
77
16
41
98
F2
91
D4
1B
57
3D
DD
AD
76
E5
4D
C9
8E
47
3B
24
38
12
E3
1C
18
1C
09
FF
0E
0C
0E
AA
FF
08
F1
07
06
55
F3
04
77
36
B5
22
2D
2D
61
33
B5
98
1E
1B
97
D4
11
21
45
BF
3E
64
4F
FE
56
B3
81
05
06
89
07
CF
8A
A3
C2
61
14
B0
19
58
C1
9B
9B
74
2F
58
C3
B4
82
99
2C
EE
58
2F
74
9B
77
16
41
C2
5A
EF
14
18
1E
1C
1B
12
65
46
23
28
9B
C1
58
19
5A
EF
7E
77
6C
41
1E
14
11
12
98
1B
8F
01
8E
22
3C
28
22
24
2D
36
46
8F
C9
E6
5C
68
34
3C
88

